100
[20,21,22,23,24,25,26,27,28,29,30,31,32,33,34,35,36,37,38,39,40,41,42,43,44,45,46,47,48,49,50,51,52,53,54,55,56,57,58,59,60,61,62,63,64,65,66,67,68,69,70]
[9,10,9,8,14,6,10,9,11,5,18,5,6,8,10,11,10,8,10,16,11,9,4,8,10,13,12,11,16,3,18,9,6,9,4,6,19,9,9,22,9,10,13,10,14,6,11,4,5,8,9]
